c File: flat50_3_0.col
c
c SOURCE: Joseph Culberson (joe@cs.ualberta.ca)
c DESCRIPTION: Quasi-random coloring problem
c              generated with flatness = 0
c                             probability = 0.139
c                             known coloring = 3
c                             random seed = 1539
c              Creation Date:  Tue Jun  9 12:11:46 1998
c Maximum degree = 8 Minimum degree = 0
c p edge 50 115
c cnf created by edge2cnf
p cnf 150 545
-1 -2 0
-1 -3 0
-2 -3 0
1 2 3 0
-4 -5 0
-4 -6 0
-5 -6 0
4 5 6 0
-7 -8 0
-7 -9 0
-8 -9 0
7 8 9 0
-10 -11 0
-10 -12 0
-11 -12 0
10 11 12 0
-13 -14 0
-13 -15 0
-14 -15 0
13 14 15 0
-16 -17 0
-16 -18 0
-17 -18 0
16 17 18 0
-19 -20 0
-19 -21 0
-20 -21 0
19 20 21 0
-22 -23 0
-22 -24 0
-23 -24 0
22 23 24 0
-25 -26 0
-25 -27 0
-26 -27 0
25 26 27 0
-28 -29 0
-28 -30 0
-29 -30 0
28 29 30 0
-31 -32 0
-31 -33 0
-32 -33 0
31 32 33 0
-34 -35 0
-34 -36 0
-35 -36 0
34 35 36 0
-37 -38 0
-37 -39 0
-38 -39 0
37 38 39 0
-40 -41 0
-40 -42 0
-41 -42 0
40 41 42 0
-43 -44 0
-43 -45 0
-44 -45 0
43 44 45 0
-46 -47 0
-46 -48 0
-47 -48 0
46 47 48 0
-49 -50 0
-49 -51 0
-50 -51 0
49 50 51 0
-52 -53 0
-52 -54 0
-53 -54 0
52 53 54 0
-55 -56 0
-55 -57 0
-56 -57 0
55 56 57 0
-58 -59 0
-58 -60 0
-59 -60 0
58 59 60 0
-61 -62 0
-61 -63 0
-62 -63 0
61 62 63 0
-64 -65 0
-64 -66 0
-65 -66 0
64 65 66 0
-67 -68 0
-67 -69 0
-68 -69 0
67 68 69 0
-70 -71 0
-70 -72 0
-71 -72 0
70 71 72 0
-73 -74 0
-73 -75 0
-74 -75 0
73 74 75 0
-76 -77 0
-76 -78 0
-77 -78 0
76 77 78 0
-79 -80 0
-79 -81 0
-80 -81 0
79 80 81 0
-82 -83 0
-82 -84 0
-83 -84 0
82 83 84 0
-85 -86 0
-85 -87 0
-86 -87 0
85 86 87 0
-88 -89 0
-88 -90 0
-89 -90 0
88 89 90 0
-91 -92 0
-91 -93 0
-92 -93 0
91 92 93 0
-94 -95 0
-94 -96 0
-95 -96 0
94 95 96 0
-97 -98 0
-97 -99 0
-98 -99 0
97 98 99 0
-100 -101 0
-100 -102 0
-101 -102 0
100 101 102 0
-103 -104 0
-103 -105 0
-104 -105 0
103 104 105 0
-106 -107 0
-106 -108 0
-107 -108 0
106 107 108 0
-109 -110 0
-109 -111 0
-110 -111 0
109 110 111 0
-112 -113 0
-112 -114 0
-113 -114 0
112 113 114 0
-115 -116 0
-115 -117 0
-116 -117 0
115 116 117 0
-118 -119 0
-118 -120 0
-119 -120 0
118 119 120 0
-121 -122 0
-121 -123 0
-122 -123 0
121 122 123 0
-124 -125 0
-124 -126 0
-125 -126 0
124 125 126 0
-127 -128 0
-127 -129 0
-128 -129 0
127 128 129 0
-130 -131 0
-130 -132 0
-131 -132 0
130 131 132 0
-133 -134 0
-133 -135 0
-134 -135 0
133 134 135 0
-136 -137 0
-136 -138 0
-137 -138 0
136 137 138 0
-139 -140 0
-139 -141 0
-140 -141 0
139 140 141 0
-142 -143 0
-142 -144 0
-143 -144 0
142 143 144 0
-145 -146 0
-145 -147 0
-146 -147 0
145 146 147 0
-148 -149 0
-148 -150 0
-149 -150 0
148 149 150 0
-106 -1 0
-107 -2 0
-108 -3 0
-109 -1 0
-110 -2 0
-111 -3 0
-112 -1 0
-113 -2 0
-114 -3 0
-121 -1 0
-122 -2 0
-123 -3 0
-70 -4 0
-71 -5 0
-72 -6 0
-94 -4 0
-95 -5 0
-96 -6 0
-115 -4 0
-116 -5 0
-117 -6 0
-118 -4 0
-119 -5 0
-120 -6 0
-100 -7 0
-101 -8 0
-102 -9 0
-121 -7 0
-122 -8 0
-123 -9 0
-124 -7 0
-125 -8 0
-126 -9 0
-136 -7 0
-137 -8 0
-138 -9 0
-145 -7 0
-146 -8 0
-147 -9 0
-67 -10 0
-68 -11 0
-69 -12 0
-106 -10 0
-107 -11 0
-108 -12 0
-118 -10 0
-119 -11 0
-120 -12 0
-139 -10 0
-140 -11 0
-141 -12 0
-145 -10 0
-146 -11 0
-147 -12 0
-82 -13 0
-83 -14 0
-84 -15 0
-88 -13 0
-89 -14 0
-90 -15 0
-103 -13 0
-104 -14 0
-105 -15 0
-124 -13 0
-125 -14 0
-126 -15 0
-127 -13 0
-128 -14 0
-129 -15 0
-142 -13 0
-143 -14 0
-144 -15 0
-58 -16 0
-59 -17 0
-60 -18 0
-82 -16 0
-83 -17 0
-84 -18 0
-88 -16 0
-89 -17 0
-90 -18 0
-94 -16 0
-95 -17 0
-96 -18 0
-118 -16 0
-119 -17 0
-120 -18 0
-142 -16 0
-143 -17 0
-144 -18 0
-112 -19 0
-113 -20 0
-114 -21 0
-130 -19 0
-131 -20 0
-132 -21 0
-52 -22 0
-53 -23 0
-54 -24 0
-61 -22 0
-62 -23 0
-63 -24 0
-88 -22 0
-89 -23 0
-90 -24 0
-91 -22 0
-92 -23 0
-93 -24 0
-112 -22 0
-113 -23 0
-114 -24 0
-136 -22 0
-137 -23 0
-138 -24 0
-52 -25 0
-53 -26 0
-54 -27 0
-61 -25 0
-62 -26 0
-63 -27 0
-64 -25 0
-65 -26 0
-66 -27 0
-67 -25 0
-68 -26 0
-69 -27 0
-55 -28 0
-56 -29 0
-57 -30 0
-64 -28 0
-65 -29 0
-66 -30 0
-106 -28 0
-107 -29 0
-108 -30 0
-121 -28 0
-122 -29 0
-123 -30 0
-136 -28 0
-137 -29 0
-138 -30 0
-76 -31 0
-77 -32 0
-78 -33 0
-82 -31 0
-83 -32 0
-84 -33 0
-85 -31 0
-86 -32 0
-87 -33 0
-91 -31 0
-92 -32 0
-93 -33 0
-103 -31 0
-104 -32 0
-105 -33 0
-142 -31 0
-143 -32 0
-144 -33 0
-52 -34 0
-53 -35 0
-54 -36 0
-73 -34 0
-74 -35 0
-75 -36 0
-85 -34 0
-86 -35 0
-87 -36 0
-91 -34 0
-92 -35 0
-93 -36 0
-55 -37 0
-56 -38 0
-57 -39 0
-88 -37 0
-89 -38 0
-90 -39 0
-91 -37 0
-92 -38 0
-93 -39 0
-100 -37 0
-101 -38 0
-102 -39 0
-112 -37 0
-113 -38 0
-114 -39 0
-130 -37 0
-131 -38 0
-132 -39 0
-55 -40 0
-56 -41 0
-57 -42 0
-76 -40 0
-77 -41 0
-78 -42 0
-97 -40 0
-98 -41 0
-99 -42 0
-64 -43 0
-65 -44 0
-66 -45 0
-94 -43 0
-95 -44 0
-96 -45 0
-142 -43 0
-143 -44 0
-144 -45 0
-52 -46 0
-53 -47 0
-54 -48 0
-103 -46 0
-104 -47 0
-105 -48 0
-136 -46 0
-137 -47 0
-138 -48 0
-55 -49 0
-56 -50 0
-57 -51 0
-70 -49 0
-71 -50 0
-72 -51 0
-103 -49 0
-104 -50 0
-105 -51 0
-106 -49 0
-107 -50 0
-108 -51 0
-118 -49 0
-119 -50 0
-120 -51 0
-124 -49 0
-125 -50 0
-126 -51 0
-103 -52 0
-104 -53 0
-105 -54 0
-115 -52 0
-116 -53 0
-117 -54 0
-127 -52 0
-128 -53 0
-129 -54 0
-145 -52 0
-146 -53 0
-147 -54 0
-136 -55 0
-137 -56 0
-138 -57 0
-109 -58 0
-110 -59 0
-111 -60 0
-112 -58 0
-113 -59 0
-114 -60 0
-148 -58 0
-149 -59 0
-150 -60 0
-112 -61 0
-113 -62 0
-114 -63 0
-145 -61 0
-146 -62 0
-147 -63 0
-148 -61 0
-149 -62 0
-150 -63 0
-103 -64 0
-104 -65 0
-105 -66 0
-109 -64 0
-110 -65 0
-111 -66 0
-130 -67 0
-131 -68 0
-132 -69 0
-133 -67 0
-134 -68 0
-135 -69 0
-136 -67 0
-137 -68 0
-138 -69 0
-145 -67 0
-146 -68 0
-147 -69 0
-112 -70 0
-113 -71 0
-114 -72 0
-118 -70 0
-119 -71 0
-120 -72 0
-139 -70 0
-140 -71 0
-141 -72 0
-145 -73 0
-146 -74 0
-147 -75 0
-103 -76 0
-104 -77 0
-105 -78 0
-112 -76 0
-113 -77 0
-114 -78 0
-121 -76 0
-122 -77 0
-123 -78 0
-148 -76 0
-149 -77 0
-150 -78 0
-109 -82 0
-110 -83 0
-111 -84 0
-115 -82 0
-116 -83 0
-117 -84 0
-103 -91 0
-104 -92 0
-105 -93 0
-109 -91 0
-110 -92 0
-111 -93 0
-115 -91 0
-116 -92 0
-117 -93 0
-121 -94 0
-122 -95 0
-123 -96 0
-148 -94 0
-149 -95 0
-150 -96 0
-118 -97 0
-119 -98 0
-120 -99 0
-130 -97 0
-131 -98 0
-132 -99 0
-106 -100 0
-107 -101 0
-108 -102 0
-115 -100 0
-116 -101 0
-117 -102 0
-118 -100 0
-119 -101 0
-120 -102 0
